%%%%%%%%%%%%%%%%%%%%%%%%%%%%%%%%%%%%%%%%%%%%%%%%%%%%%%%%%%%%%%%%%%%%%%%%%
%FILE DATA:	Soccer Computational Problem for MiniZinc Models
%AUTHORS:	Robinson Duque, Alejandro Arbelaez, Juan Francisco Díaz
%CONTACT:  	robinson.duque@correounivalle.edu.co 
%LAST UPDATE:	May, 2018 
%ROUND ROBIN:2
%TEAMS:20
%PRESENT FIXTURE:31
%FIXTURES TO PLAY:7
%GAMES TO PLAY:70
%%%%%%%%%%%%%%%%%%%%%%%%%%%%%%%%%%%%%%%%%%%%%%%%%%%%%%%%%%%%%%%%%%%%%%%%%
%Number of teams:
n=20;

%For the purpose of our models, we offer two representations of the games to play, namely fixtures and games to play:

%Fixtures to play:
%fixtures=[|0,0,1,0,1,0,0,1,0,0,0,1,0,0,1,1,0,0,1,0
%|0,0,1,1,1,1,0,0,1,0,1,0,0,1,0,0,0,0,0,0
%|1,1,0,1,0,1,1,0,0,0,1,0,0,0,0,1,0,0,0,0
%|0,1,1,0,1,0,0,0,0,0,0,1,0,0,1,0,1,1,0,0
%|1,1,0,1,0,1,0,0,0,1,0,1,0,1,0,0,0,0,0,0
%|0,1,1,0,1,0,0,0,0,1,0,0,0,1,0,0,1,1,0,0
%|0,0,1,0,0,0,0,0,1,1,1,1,1,0,0,0,0,0,1,0
%|1,0,0,0,0,0,0,0,0,1,0,1,1,0,0,0,0,1,1,1
%|0,1,0,0,0,0,1,0,0,0,1,0,1,0,0,1,1,0,0,1
%|0,0,0,0,1,1,1,1,0,0,0,0,0,1,0,0,1,1,0,0
%|0,1,1,0,0,0,1,0,1,0,0,0,0,1,0,0,1,0,0,1
%|1,0,0,1,1,0,1,1,0,0,0,0,0,1,1,0,0,0,0,0
%|0,0,0,0,0,0,1,1,1,0,0,0,0,0,1,1,0,1,1,0
%|0,1,0,0,1,1,0,0,0,1,1,1,0,0,0,0,0,1,0,0
%|1,0,0,1,0,0,0,0,0,0,0,1,1,0,0,1,0,0,1,1
%|1,0,1,0,0,0,0,0,1,0,0,0,1,0,1,0,1,0,1,0
%|0,0,0,1,0,1,0,0,1,1,1,0,0,0,0,1,0,0,0,1
%|0,0,0,1,0,1,0,1,0,1,0,0,1,1,0,0,0,0,0,1
%|1,0,0,0,0,0,1,1,0,0,0,0,1,0,1,1,0,0,0,1
%|0,0,0,0,0,0,0,1,1,0,1,0,0,0,1,0,1,1,1,0|];

%Played Fixtures:
%PlayedFixtures=[|0,2,1,2,1,2,2,1,2,2,2,1,2,2,1,1,2,2,1,2
%|2,0,1,1,1,1,2,2,1,2,1,2,2,1,2,2,2,2,2,2
%|1,1,0,1,2,1,1,2,2,2,1,2,2,2,2,1,2,2,2,2
%|2,1,1,0,1,2,2,2,2,2,2,1,2,2,1,2,1,1,2,2
%|1,1,2,1,0,1,2,2,2,1,2,1,2,1,2,2,2,2,2,2
%|2,1,1,2,1,0,2,2,2,1,2,2,2,1,2,2,1,1,2,2
%|2,2,1,2,2,2,0,2,1,1,1,1,1,2,2,2,2,2,1,2
%|1,2,2,2,2,2,2,0,2,1,2,1,1,2,2,2,2,1,1,1
%|2,1,2,2,2,2,1,2,0,2,1,2,1,2,2,1,1,2,2,1
%|2,2,2,2,1,1,1,1,2,0,2,2,2,1,2,2,1,1,2,2
%|2,1,1,2,2,2,1,2,1,2,0,2,2,1,2,2,1,2,2,1
%|1,2,2,1,1,2,1,1,2,2,2,0,2,1,1,2,2,2,2,2
%|2,2,2,2,2,2,1,1,1,2,2,2,0,2,1,1,2,1,1,2
%|2,1,2,2,1,1,2,2,2,1,1,1,2,0,2,2,2,1,2,2
%|1,2,2,1,2,2,2,2,2,2,2,1,1,2,0,1,2,2,1,1
%|1,2,1,2,2,2,2,2,1,2,2,2,1,2,1,0,1,2,1,2
%|2,2,2,1,2,1,2,2,1,1,1,2,2,2,2,1,0,2,2,1
%|2,2,2,1,2,1,2,1,2,1,2,2,1,1,2,2,2,0,2,1
%|1,2,2,2,2,2,1,1,2,2,2,2,1,2,1,1,2,2,0,1
%|2,2,2,2,2,2,2,1,1,2,1,2,2,2,1,2,1,1,1,0|];

%Games to play:
games=[|3,1|3,2|4,2|4,3|5,1|5,2|5,4|6,2|6,3|6,5|7,3|8,1|9,2|9,7|10,5|10,6|10,7|10,8|11,2|11,3|11,7|11,9|12,1|12,4|12,5|12,7|12,8|13,7|13,8|13,9|14,2|14,5|14,6|14,10|14,11|14,12|15,1|15,4|15,12|15,13|16,1|16,3|16,9|16,13|16,15|17,4|17,6|17,9|17,10|17,11|17,16|18,4|18,6|18,8|18,10|18,13|18,14|19,1|19,7|19,8|19,13|19,15|19,16|20,8|20,9|20,11|20,15|20,17|20,18|20,19|];

%Played Games:
%PlayedGames=[|2,1|2,1|3,1|3,2|4,1|4,1|4,2|4,3|5,1|5,2|5,3|5,3|5,4|6,1|6,1|6,2|6,3|6,4|6,4|6,5|7,1|7,1|7,2|7,2|7,3|7,4|7,4|7,5|7,5|7,6|7,6|8,1|8,2|8,2|8,3|8,3|8,4|8,4|8,5|8,5|8,6|8,6|8,7|8,7|9,1|9,1|9,2|9,3|9,3|9,4|9,4|9,5|9,5|9,6|9,6|9,7|9,8|9,8|10,1|10,1|10,2|10,2|10,3|10,3|10,4|10,4|10,5|10,6|10,7|10,8|10,9|10,9|11,1|11,1|11,2|11,3|11,4|11,4|11,5|11,5|11,6|11,6|11,7|11,8|11,8|11,9|11,10|11,10|12,1|12,2|12,2|12,3|12,3|12,4|12,5|12,6|12,6|12,7|12,8|12,9|12,9|12,10|12,10|12,11|12,11|13,1|13,1|13,2|13,2|13,3|13,3|13,4|13,4|13,5|13,5|13,6|13,6|13,7|13,8|13,9|13,10|13,10|13,11|13,11|13,12|13,12|14,1|14,1|14,2|14,3|14,3|14,4|14,4|14,5|14,6|14,7|14,7|14,8|14,8|14,9|14,9|14,10|14,11|14,12|14,13|14,13|15,1|15,2|15,2|15,3|15,3|15,4|15,5|15,5|15,6|15,6|15,7|15,7|15,8|15,8|15,9|15,9|15,10|15,10|15,11|15,11|15,12|15,13|15,14|15,14|16,1|16,2|16,2|16,3|16,4|16,4|16,5|16,5|16,6|16,6|16,7|16,7|16,8|16,8|16,9|16,10|16,10|16,11|16,11|16,12|16,12|16,13|16,14|16,14|16,15|17,1|17,1|17,2|17,2|17,3|17,3|17,4|17,5|17,5|17,6|17,7|17,7|17,8|17,8|17,9|17,10|17,11|17,12|17,12|17,13|17,13|17,14|17,14|17,15|17,15|17,16|18,1|18,1|18,2|18,2|18,3|18,3|18,4|18,5|18,5|18,6|18,7|18,7|18,8|18,9|18,9|18,10|18,11|18,11|18,12|18,12|18,13|18,14|18,15|18,15|18,16|18,16|18,17|18,17|19,1|19,2|19,2|19,3|19,3|19,4|19,4|19,5|19,5|19,6|19,6|19,7|19,8|19,9|19,9|19,10|19,10|19,11|19,11|19,12|19,12|19,13|19,14|19,14|19,15|19,16|19,17|19,17|19,18|19,18|20,1|20,1|20,2|20,2|20,3|20,3|20,4|20,4|20,5|20,5|20,6|20,6|20,7|20,7|20,8|20,9|20,10|20,10|20,11|20,12|20,12|20,13|20,13|20,14|20,14|20,15|20,16|20,16|20,17|20,18|20,19|];

%Played Games - Win Results:
%% 0  0  0  0  0  0  0  1  0  0  0  0  0  0  0  0  0  0  0  0
%% 0  0  1  1  0  1  0  1  0  0  0  2  0  1  1  0  0  0  0  0
%% 0  0  0  0  2  0  1  0  0  1  0  1  0  0  2  0  0  0  0  0
%% 0  0  0  0  0  0  0  0  0  0  0  0  0  0  0  0  0  0  0  0
%% 0  0  0  0  0  0  0  0  0  0  0  0  0  0  0  0  0  0  0  0
%% 0  0  0  0  0  0  0  0  0  0  0  0  0  1  0  0  0  0  0  0
%% 0  0  0  0  0  0  0  0  0  1  0  1  0  0  1  0  0  0  0  0
%% 0  0  0  0  0  0  0  0  0  0  0  0  0  0  0  0  0  0  0  0
%% 0  1  0  0  2  0  1  0  0  2  0  0  0  0  0  0  0  0  0  0
%% 0  0  0  0  0  0  0  0  0  0  0  0  0  1  0  0  0  0  0  0
%% 2  0  1  0  1  1  0  1  1  0  0  2  2  1  1  0  0  0  0  0
%% 0  0  0  0  0  0  0  0  0  0  0  0  0  0  0  0  0  0  0  0
%% 2  0  0  0  0  0  0  1  1  0  0  2  0  0  1  0  0  0  0  0
%% 0  0  0  0  0  0  0  0  0  0  0  0  0  0  0  0  0  0  0  0
%% 0  0  0  1  0  0  0  0  0  0  0  0  0  0  0  0  0  0  0  0
%% 1  0  0  0  1  0  0  0  0  0  2  2  1  0  1  0  1  2  0  2
%% 2  0  0  1  0  1  0  0  1  1  0  1  2  0  0  0  0  0  2  0
%% 1  2  0  1  0  1  0  1  0  1  0  1  0  1  0  0  2  0  0  0
%% 0  0  1  2  1  2  1  1  0  0  0  1  0  0  0  0  0  0  0  0
%% 2  1  2  2  0  0  0  1  1  0  0  1  0  0  1  0  0  0  0  0
%Played Games - Tie Results:
%% 0  2  1  2  1  2  2  0  2  2  0  1  0  2  1  0  0  1  1  0
%% 2  0  0  0  1  0  2  1  0  2  1  0  2  0  1  2  2  0  2  1
%% 1  0  0  1  0  1  0  2  2  1  0  1  2  2  0  1  2  2  1  0
%% 2  0  1  0  1  2  2  2  2  2  2  1  2  2  0  2  0  0  0  0
%% 1  1  0  1  0  1  2  2  0  1  1  1  2  1  2  1  2  2  1  2
%% 2  0  1  2  1  0  2  2  2  1  1  2  2  0  2  2  0  0  0  2
%% 2  2  0  2  2  2  0  2  0  0  1  0  1  2  1  2  2  2  0  2
%% 0  1  2  2  2  2  2  0  2  1  1  1  0  2  2  2  2  0  0  0
%% 2  0  2  2  0  2  0  2  0  0  0  2  0  2  2  1  0  2  2  0
%% 2  2  1  2  1  1  0  1  0  0  2  2  2  0  2  2  0  0  2  2
%% 0  1  0  2  1  1  1  1  0  2  0  0  0  0  1  0  1  2  2  1
%% 1  0  1  1  1  2  0  1  2  2  0  0  0  1  1  0  1  1  1  1
%% 0  2  2  2  2  2  1  0  0  2  0  0  0  2  0  0  0  1  1  2
%% 2  0  2  2  1  0  2  2  2  0  0  1  2  0  2  2  2  0  2  2
%% 1  1  0  0  2  2  1  2  2  2  1  1  0  2  0  0  2  2  1  0
%% 0  2  1  2  1  2  2  2  1  2  0  0  0  2  0  0  0  0  1  0
%% 0  2  2  0  2  0  2  2  0  0  1  1  0  2  2  0  0  0  0  1
%% 1  0  2  0  2  0  2  0  2  0  2  1  1  0  2  0  0  0  2  1
%% 1  2  1  0  1  0  0  0  2  2  2  1  1  2  1  1  0  2  0  1
%% 0  1  0  0  2  2  2  0  0  2  1  1  2  2  0  0  1  1  1  0
%Played Games - Lose Results:
%% 0  0  0  0  0  0  0  0  0  0  2  0  2  0  0  1  2  1  0  2
%% 0  0  0  0  0  0  0  0  1  0  0  0  0  0  0  0  0  2  0  1
%% 0  1  0  0  0  0  0  0  0  0  1  0  0  0  0  0  0  0  1  2
%% 0  1  0  0  0  0  0  0  0  0  0  0  0  0  1  0  1  1  2  2
%% 0  0  2  0  0  0  0  0  2  0  1  0  0  0  0  1  0  0  1  0
%% 0  1  0  0  0  0  0  0  0  0  1  0  0  0  0  0  1  1  2  0
%% 0  0  1  0  0  0  0  0  1  0  0  0  0  0  0  0  0  0  1  0
%% 1  1  0  0  0  0  0  0  0  0  1  0  1  0  0  0  0  1  1  1
%% 0  0  0  0  0  0  0  0  0  0  1  0  1  0  0  0  1  0  0  1
%% 0  0  1  0  0  0  1  0  2  0  0  0  0  0  0  0  1  1  0  0
%% 0  0  0  0  0  0  0  0  0  0  0  0  0  0  0  2  0  0  0  0
%% 0  2  1  0  0  0  1  0  0  0  2  0  2  0  0  2  1  1  1  1
%% 0  0  0  0  0  0  0  0  0  0  2  0  0  0  0  1  2  0  0  0
%% 0  1  0  0  0  1  0  0  0  1  1  0  0  0  0  0  0  1  0  0
%% 0  1  2  0  0  0  1  0  0  0  1  0  1  0  0  1  0  0  0  1
%% 0  0  0  0  0  0  0  0  0  0  0  0  0  0  0  0  0  0  0  0
%% 0  0  0  0  0  0  0  0  0  0  0  0  0  0  0  1  0  2  0  0
%% 0  0  0  0  0  0  0  0  0  0  0  0  0  0  0  2  0  0  0  0
%% 0  0  0  0  0  0  0  0  0  0  0  0  0  0  0  0  2  0  0  0
%% 0  0  0  0  0  0  0  0  0  0  0  0  0  0  0  2  0  0  0  0

%%Initial points:
iPoints=[23, 43, 40, 23, 24, 27, 34, 24, 39, 27, 55, 17, 40, 26, 25, 57, 50, 51, 47, 51];

%%Initial positions:
%iPositions=[19, 7, 9, 18, 17, 13, 11, 16, 10, 12, 2, 20, 8, 14, 15, 1, 5, 4, 6, 3];

%%Position Constraints:
%numberPositionConstraints=1;

%%Total Fixtures:
%totalFixtures=38;

%%Fixtures to Play:
%fixturesToPlay=7;

%%Position Constraints Built With
%wantedPoints=[0, 3, 1, 3, 0, 0, 0, 1, 1, 3, 3, 3, 3, 0, 0, 0, 1, 1, 0, 3, 0, 1, 3, 1, 1, 3, 1, 3, 0, 3, 1, 0, 1, 0, 0, 0, 3, 1, 0, 1, 1, 1, 0, 3, 3, 0, 3, 1, 0, 1, 1, 3, 1, 1, 0, 3, 1, 0, 1, 3, 3, 1, 0, 3, 1, 3, 3, 1, 3, 1];

%%Probabilities:
probabilities=[|32,43,0,25,|63,12,0,25,|51,7,0,42,|65,0,0,35,|82,12,0,6,|36,61,0,3,|41,16,0,43,|46,52,0,2,|94,4,0,2,|56,28,0,16,|7,77,0,16,|9,42,0,49,|99,1,0,0,|84,10,0,6,|49,27,0,24,|60,4,0,36,|7,61,0,32,|80,8,0,12,|37,55,0,8,|63,17,0,20,|6,9,0,85,|89,10,0,1,|34,36,0,30,|63,21,0,16,|11,74,0,15,|70,29,0,1,|96,1,0,3,|13,39,0,48,|82,1,0,17,|79,4,0,17,|59,32,0,9,|96,0,0,4,|99,0,0,1,|74,1,0,25,|64,34,0,2,|49,43,0,8,|26,18,0,56,|70,22,0,8,|51,10,0,39,|99,0,0,1,|65,29,0,6,|67,15,0,18,|76,13,0,11,|50,8,0,42,|23,39,0,38,|27,39,0,34,|92,6,0,2,|41,27,0,32,|29,15,0,56,|32,19,0,49,|57,20,0,23,|2,32,0,66,|33,17,0,50,|52,13,0,35,|54,38,0,8,|57,20,0,23,|27,29,0,44,|62,20,0,18,|36,55,0,9,|40,2,0,58,|32,13,0,55,|80,19,0,1,|19,54,0,27,|75,6,0,19,|50,33,0,17,|37,2,0,61,|77,15,0,8,|1,52,0,47,|96,0,0,4,|14,82,0,4,|];


%POSITION CONSTRAINTS
%%[|teamID, operator, position|...]
%%operators index:
%%%1 for =  operator
%%%2 for >  operator
%%%3 for >= operator
%%%4 for <  operator
%%%5 for <= operator

positionConstraints=[|18,1,4|];

%SCORE VECTOR CONSTRAINTS
%%[|teamID, operator, wantedPoints|...]
%%operators index:
%%%1 for =  operator
%%%2 for >  operator
%%%3 for >= operator
%%%4 for <  operator
%%%5 for <= operator

%scoreVectorConstraints=[|18,1,60|];

%Instance Features:
%features=T,FP,TF,C,C/T,C/TF,FP/TF,FP/T,FP*C/T,FP*T/C,(C/T)*(FP/TF),Distance,Distance/C,Distance/T,Distance/(C*T)
%values=20,7,38,1,0.05,0.02631578947368421,0.1842105263157895,0.35,0.35,140.0,0.009210526315789473,0,0.0,0.0,0.0



